c CNF file corresponding to a (partial) station packing problem.
p cnf 1679 171
1 2 3 4 5 6 7 8 9 10 11 12 13 14 0
-1 -2 0
-1 -3 0
-1 -4 0
-1 -5 0
-1 -6 0
-1 -7 0
-1 -8 0
-1 -9 0
-1 -10 0
-1 -11 0
-1 -12 0
-1 -13 0
-1 -14 0
-2 -3 0
-2 -4 0
-2 -5 0
-2 -6 0
-2 -7 0
-2 -8 0
-2 -9 0
-2 -10 0
-2 -11 0
-2 -12 0
-2 -13 0
-2 -14 0
-3 -4 0
-3 -5 0
-3 -6 0
-3 -7 0
-3 -8 0
-3 -9 0
-3 -10 0
-3 -11 0
-3 -12 0
-3 -13 0
-3 -14 0
-4 -5 0
-4 -6 0
-4 -7 0
-4 -8 0
-4 -9 0
-4 -10 0
-4 -11 0
-4 -12 0
-4 -13 0
-4 -14 0
-5 -6 0
-5 -7 0
-5 -8 0
-5 -9 0
-5 -10 0
-5 -11 0
-5 -12 0
-5 -13 0
-5 -14 0
-6 -7 0
-6 -8 0
-6 -9 0
-6 -10 0
-6 -11 0
-6 -12 0
-6 -13 0
-6 -14 0
-7 -8 0
-7 -9 0
-7 -10 0
-7 -11 0
-7 -12 0
-7 -13 0
-7 -14 0
-8 -9 0
-8 -10 0
-8 -11 0
-8 -12 0
-8 -13 0
-8 -14 0
-9 -10 0
-9 -11 0
-9 -12 0
-9 -13 0
-9 -14 0
-10 -11 0
-10 -12 0
-10 -13 0
-10 -14 0
-11 -12 0
-11 -13 0
-11 -14 0
-12 -13 0
-12 -14 0
-13 -14 0
-1671 -6 0
-1668 -2 0
-14 -1679 0
-1676 -11 0
-1674 -9 0
-8 -1673 0
-10 -1675 0
-7 -1672 0
-1678 -13 0
-12 -1677 0
-4 -1669 0
-1670 -5 0
1668 1669 1670 1671 1672 1673 1674 1675 1676 1677 1678 1679 0
-1668 -1669 0
-1668 -1670 0
-1668 -1671 0
-1668 -1672 0
-1668 -1673 0
-1668 -1674 0
-1668 -1675 0
-1668 -1676 0
-1668 -1677 0
-1668 -1678 0
-1668 -1679 0
-1669 -1670 0
-1669 -1671 0
-1669 -1672 0
-1669 -1673 0
-1669 -1674 0
-1669 -1675 0
-1669 -1676 0
-1669 -1677 0
-1669 -1678 0
-1669 -1679 0
-1670 -1671 0
-1670 -1672 0
-1670 -1673 0
-1670 -1674 0
-1670 -1675 0
-1670 -1676 0
-1670 -1677 0
-1670 -1678 0
-1670 -1679 0
-1671 -1672 0
-1671 -1673 0
-1671 -1674 0
-1671 -1675 0
-1671 -1676 0
-1671 -1677 0
-1671 -1678 0
-1671 -1679 0
-1672 -1673 0
-1672 -1674 0
-1672 -1675 0
-1672 -1676 0
-1672 -1677 0
-1672 -1678 0
-1672 -1679 0
-1673 -1674 0
-1673 -1675 0
-1673 -1676 0
-1673 -1677 0
-1673 -1678 0
-1673 -1679 0
-1674 -1675 0
-1674 -1676 0
-1674 -1677 0
-1674 -1678 0
-1674 -1679 0
-1675 -1676 0
-1675 -1677 0
-1675 -1678 0
-1675 -1679 0
-1676 -1677 0
-1676 -1678 0
-1676 -1679 0
-1677 -1678 0
-1677 -1679 0
-1678 -1679 0
